myproject/instances/20nodes/rnd21_20.tsp
NAME : rnd21_20.tsp
TYPE : TSP
DIMENSION : 20
EDGE_WEIGHT_TYPE : EUC_2D
NODE_COORD_SECTION
0 658 13
1 411 688
2 579 29
3 154 655
4 300 281
5 100 27
6 282 441
7 44 395
8 330 199
9 608 899
10 731 754
11 66 501
12 861 730
13 96 110
14 405 43
15 529 947
16 810 893
17 687 71
18 667 440
19 123 255
