myproject/instances/20nodes/rnd21_20.opt.tour
NAME : rnd21_20.tsp.tsp.opt.tour
TYPE : TOUR
DIMENSION : 20
TOUR_SECTION
1
14
15
13
17
7
9
18
4
5
12
11
19
16
2
8
3
6
20
10
-1